2 0 2 0
2 1 3 5
1 0 1 0
2 2 5 9
3 0 1 8
0 0 2 5
5 0 1 13
0 1 0 6
5 1 3 16
0 2 1 16
1 1 2 8
4 0 2 13
4 1 1 22
1 2 4 13
3 1 0 13
4 2 4 25
2 3 0 18
3 2 2 22
3 3 3 27
5 2 5 19
2 4 1 27
1 3 5 28
5 3 0 28
1 4 0 38
3 4 4 30
0 3 3 30
0 4 5 38
4 3 5 41
4 4 0 48
1 5 3 48
5 4 4 38
2 5 4 42
4 5 3 52
0 5 4 49
5 5 2 42
3 5 5 45
